1162925
51,84,59,2,81,46,94,107,16,29,25,44,32,95,43,85,61,6,30,103,56,74,92,4,67,79,20,63,3,83,52,34,101,98,35,5,1,82,45,90,109,24,23,15,22,64,10,104,58,54,102,100,53,17,80,48,21,13,68,40,8,28,36,12,65,55,78,33,108,106,60,42,88,7,18,50,76,73,19,62,87,96,93,105,99,71,47,97,91,89,11,49,31,39,14,70,69,27,86,75,57,72,38,41,26,37,66,77,9